(set-logic QF_NRA)
(set-info :source |Benchmarks generated from hycomp (https://es-static.fbk.eu/tools/hycomp/). BMC instances of non-linear hybrid automata taken from: Alessandro Cimatti, Sergio Mover, Stefano Tonetta, A quantifier-free SMT encoding of non-linear hybrid automata, FMCAD 2012 and Alessandro Cimatti, Sergio Mover, Stefano Tonetta, Quantier-free encoding of invariants for Hybrid Systems, Formal Methods in System Design. This instance solves a BMC problem of depth 2 and uses the encoding obtained with quantifier elimination using qepcad encoding. Contacts: Sergio Mover (mover@fbk.eu), Stefano Tonetta (tonettas@fbk.eu), Alessandro Cimatti (cimatti@fbk.eu).|)
(set-info :smt-lib-version 2.0)
(set-info :category "industrial")
(set-info :status unsat)
;; MathSAT API call trace
;; generated on Mon Mar 19 10:50:28 2012
(declare-fun b.x__AT0 () Real)
(declare-fun b.event_is_timed__AT2 () Bool)
(declare-fun b.speed_x__AT1 () Real)
(declare-fun b.time__AT1 () Real)
(declare-fun g__AT0 () Real)
(declare-fun b.y__AT0 () Real)
(declare-fun b.EVENT.0__AT1 () Bool)
(declare-fun b.speed_y__AT1 () Real)
(declare-fun b.delta__AT1 () Real)
(declare-fun b.counter.0__AT0 () Bool)
(declare-fun b.EVENT.1__AT1 () Bool)
(declare-fun b.delta__AT0 () Real)
(declare-fun b.counter.1__AT0 () Bool)
(declare-fun b.counter.3__AT2 () Bool)
(declare-fun b.time__AT2 () Real)
(declare-fun b.EVENT.0__AT0 () Bool)
(declare-fun b.delta__AT2 () Real)
(declare-fun b.x__AT1 () Real)
(declare-fun b.x__AT2 () Real)
(declare-fun b.EVENT.0__AT2 () Bool)
(declare-fun b.EVENT.1__AT2 () Bool)
(declare-fun b.speed_y__AT0 () Real)
(declare-fun b.event_is_timed__AT0 () Bool)
(declare-fun b.y__AT2 () Real)
(declare-fun b.counter.3__AT0 () Bool)
(declare-fun b.counter.0__AT2 () Bool)
(declare-fun b.counter.1__AT2 () Bool)
(declare-fun b.counter.2__AT2 () Bool)
(declare-fun speed_loss__AT0 () Real)
(declare-fun b.y__AT1 () Real)
(declare-fun b.EVENT.1__AT0 () Bool)
(declare-fun b.event_is_timed__AT1 () Bool)
(declare-fun b.counter.0__AT1 () Bool)
(declare-fun b.speed_x__AT0 () Real)
(declare-fun b.speed_x__AT2 () Real)
(declare-fun b.counter.1__AT1 () Bool)
(declare-fun b.time__AT0 () Real)
(declare-fun b.speed_y__AT2 () Real)
(declare-fun b.y__AT3 () Real)
(declare-fun b.counter.2__AT0 () Bool)
(declare-fun b.counter.2__AT1 () Bool)
(declare-fun b.counter.3__AT1 () Bool)
(assert (let ((.def_504 (= b.y__AT2 b.y__AT3)))
(let ((.def_505 (not .def_504)))
(let ((.def_477 (* 2.0 b.delta__AT2)))
(let ((.def_478 (* b.speed_y__AT2 .def_477)))
(let ((.def_474 (* b.delta__AT2 b.delta__AT2)))
(let ((.def_475 (* g__AT0 .def_474)))
(let ((.def_476 (* (- 1.0) .def_475)))
(let ((.def_479 (+ .def_476 .def_478)))
(let ((.def_480 (* 2.0 b.y__AT2)))
(let ((.def_482 (+ .def_480 .def_479)))
(let ((.def_497 (<= .def_482 0.0 )))
(let ((.def_498 (not .def_497)))
(let ((.def_494 (* b.speed_y__AT2 b.speed_y__AT2)))
(let ((.def_493 (* g__AT0 .def_480)))
(let ((.def_495 (+ .def_493 .def_494)))
(let ((.def_496 (<= .def_495 0.0 )))
(let ((.def_499 (and .def_496 .def_498)))
(let ((.def_453 (not b.EVENT.0__AT2)))
(let ((.def_451 (not b.EVENT.1__AT2)))
(let ((.def_467 (and .def_451 .def_453)))
(let ((.def_500 (and .def_467 .def_499)))
(let ((.def_487 (* b.speed_y__AT2 b.delta__AT2)))
(let ((.def_488 (+ .def_480 .def_487)))
(let ((.def_489 (<= 0.0 .def_488)))
(let ((.def_472 (<= 0.0 b.speed_y__AT2)))
(let ((.def_486 (not .def_472)))
(let ((.def_490 (and .def_486 .def_489)))
(let ((.def_483 (<= 0.0 .def_482)))
(let ((.def_491 (and .def_483 .def_490)))
(let ((.def_456 (<= 0.0 b.y__AT2)))
(let ((.def_473 (and .def_456 .def_472)))
(let ((.def_484 (and .def_473 .def_483)))
(let ((.def_470 (<= 0.0 b.delta__AT2)))
(let ((.def_471 (not .def_470)))
(let ((.def_485 (or .def_471 .def_484)))
(let ((.def_492 (or .def_485 .def_491)))
(let ((.def_501 (or .def_492 .def_500)))
(let ((.def_502 (not .def_501)))
(let ((.def_506 (or .def_502 .def_505)))
(let ((.def_468 (not .def_467)))
(let ((.def_507 (or .def_468 .def_506)))
(let ((.def_170 (not b.counter.0__AT1)))
(let ((.def_158 (not b.counter.1__AT1)))
(let ((.def_460 (and .def_158 .def_170)))
(let ((.def_463 (or b.counter.3__AT1 .def_460)))
(let ((.def_165 (not b.counter.2__AT1)))
(let ((.def_461 (and .def_165 .def_460)))
(let ((.def_180 (not b.counter.3__AT1)))
(let ((.def_462 (or .def_180 .def_461)))
(let ((.def_464 (and .def_462 .def_463)))
(let ((.def_65 (<= speed_loss__AT0 (/ 1 2))))
(let ((.def_62 (<= (/ 1 10) speed_loss__AT0)))
(let ((.def_66 (and .def_62 .def_65)))
(let ((.def_57 (<= g__AT0 10.0 )))
(let ((.def_56 (<= 8.0 g__AT0)))
(let ((.def_58 (and .def_56 .def_57)))
(let ((.def_67 (and .def_58 .def_66)))
(let ((.def_457 (and .def_67 .def_456)))
(let ((.def_454 (or .def_451 .def_453)))
(let ((.def_6 (not b.counter.0__AT2)))
(let ((.def_4 (not b.counter.1__AT2)))
(let ((.def_444 (or .def_4 .def_6)))
(let ((.def_448 (or b.counter.3__AT2 .def_444)))
(let ((.def_445 (or b.counter.2__AT2 .def_444)))
(let ((.def_9 (not b.counter.2__AT2)))
(let ((.def_443 (or .def_6 .def_9)))
(let ((.def_446 (and .def_443 .def_445)))
(let ((.def_12 (not b.counter.3__AT2)))
(let ((.def_447 (or .def_12 .def_446)))
(let ((.def_449 (and .def_447 .def_448)))
(let ((.def_455 (and .def_449 .def_454)))
(let ((.def_458 (and .def_455 .def_457)))
(let ((.def_281 (<= 0.0 b.delta__AT1)))
(let ((.def_266 (not b.EVENT.0__AT1)))
(let ((.def_264 (not b.EVENT.1__AT1)))
(let ((.def_278 (and .def_264 .def_266)))
(let ((.def_279 (not .def_278)))
(let ((.def_439 (or .def_279 .def_281)))
(let ((.def_440 (or b.EVENT.1__AT1 .def_439)))
(let ((.def_389 (= b.counter.0__AT2 b.counter.0__AT1)))
(let ((.def_387 (= b.counter.1__AT2 b.counter.1__AT1)))
(let ((.def_385 (= b.counter.2__AT2 b.counter.2__AT1)))
(let ((.def_384 (= b.counter.3__AT2 b.counter.3__AT1)))
(let ((.def_386 (and .def_384 .def_385)))
(let ((.def_388 (and .def_386 .def_387)))
(let ((.def_390 (and .def_388 .def_389)))
(let ((.def_436 (or .def_279 .def_390)))
(let ((.def_437 (or b.EVENT.1__AT1 .def_436)))
(let ((.def_396 (= b.x__AT1 b.x__AT2)))
(let ((.def_315 (= b.y__AT1 b.y__AT2)))
(let ((.def_430 (and .def_315 .def_396)))
(let ((.def_330 (= b.speed_x__AT1 b.speed_x__AT2)))
(let ((.def_431 (and .def_330 .def_430)))
(let ((.def_383 (= b.speed_y__AT1 b.speed_y__AT2)))
(let ((.def_432 (and .def_383 .def_431)))
(let ((.def_427 (= b.delta__AT1 0.0 )))
(let ((.def_428 (and .def_278 .def_427)))
(let ((.def_429 (not .def_428)))
(let ((.def_433 (or .def_429 .def_432)))
(let ((.def_434 (or b.EVENT.1__AT1 .def_433)))
(let ((.def_407 (= b.time__AT1 b.time__AT2)))
(let ((.def_419 (and .def_396 .def_407)))
(let ((.def_420 (and .def_315 .def_419)))
(let ((.def_421 (and .def_330 .def_420)))
(let ((.def_422 (and .def_383 .def_421)))
(let ((.def_423 (and .def_390 .def_422)))
(let ((.def_424 (or .def_264 .def_423)))
(let ((.def_410 (* (- 1.0) b.time__AT2)))
(let ((.def_413 (+ b.delta__AT1 .def_410)))
(let ((.def_414 (+ b.time__AT1 .def_413)))
(let ((.def_415 (= .def_414 0.0 )))
(let ((.def_416 (or .def_279 .def_415)))
(let ((.def_417 (or b.EVENT.1__AT1 .def_416)))
(let ((.def_408 (or .def_278 .def_407)))
(let ((.def_409 (or b.EVENT.1__AT1 .def_408)))
(let ((.def_418 (and .def_409 .def_417)))
(let ((.def_425 (and .def_418 .def_424)))
(let ((.def_403 (= .def_279 b.event_is_timed__AT2)))
(let ((.def_401 (= b.event_is_timed__AT1 .def_278)))
(let ((.def_404 (and .def_401 .def_403)))
(let ((.def_391 (and .def_383 .def_390)))
(let ((.def_347 (= b.y__AT1 0.0 )))
(let ((.def_283 (<= 0.0 b.speed_y__AT1)))
(let ((.def_297 (not .def_283)))
(let ((.def_348 (and .def_297 .def_347)))
(let ((.def_392 (or .def_348 .def_391)))
(let ((.def_360 (or .def_6 b.counter.0__AT1)))
(let ((.def_359 (or b.counter.0__AT2 .def_170)))
(let ((.def_361 (and .def_359 .def_360)))
(let ((.def_362 (and .def_4 .def_361)))
(let ((.def_363 (or b.counter.1__AT1 .def_362)))
(let ((.def_358 (or b.counter.1__AT2 .def_158)))
(let ((.def_364 (and .def_358 .def_363)))
(let ((.def_375 (and .def_9 .def_364)))
(let ((.def_376 (or b.counter.2__AT1 .def_375)))
(let ((.def_370 (and .def_4 .def_170)))
(let ((.def_371 (or b.counter.1__AT1 .def_370)))
(let ((.def_372 (and .def_358 .def_371)))
(let ((.def_373 (and b.counter.2__AT2 .def_372)))
(let ((.def_374 (or .def_165 .def_373)))
(let ((.def_377 (and .def_374 .def_376)))
(let ((.def_378 (and b.counter.3__AT2 .def_377)))
(let ((.def_379 (or b.counter.3__AT1 .def_378)))
(let ((.def_365 (and b.counter.2__AT2 .def_364)))
(let ((.def_366 (or b.counter.2__AT1 .def_365)))
(let ((.def_354 (or b.counter.1__AT2 b.counter.1__AT1)))
(let ((.def_352 (and .def_4 b.counter.0__AT2)))
(let ((.def_353 (or .def_158 .def_352)))
(let ((.def_355 (and .def_353 .def_354)))
(let ((.def_356 (and .def_9 .def_355)))
(let ((.def_357 (or .def_165 .def_356)))
(let ((.def_367 (and .def_357 .def_366)))
(let ((.def_368 (and .def_12 .def_367)))
(let ((.def_369 (or .def_180 .def_368)))
(let ((.def_380 (and .def_369 .def_379)))
(let ((.def_153 (* (- 1.0) speed_loss__AT0)))
(let ((.def_154 (+ 1.0 .def_153)))
(let ((.def_143 (* (- 1.0) b.speed_y__AT1)))
(let ((.def_350 (* .def_143 .def_154)))
(let ((.def_351 (= b.speed_y__AT2 .def_350)))
(let ((.def_381 (and .def_351 .def_380)))
(let ((.def_349 (not .def_348)))
(let ((.def_382 (or .def_349 .def_381)))
(let ((.def_393 (and .def_382 .def_392)))
(let ((.def_394 (and .def_315 .def_393)))
(let ((.def_395 (and .def_330 .def_394)))
(let ((.def_397 (and .def_395 .def_396)))
(let ((.def_398 (or .def_278 .def_397)))
(let ((.def_399 (or b.EVENT.1__AT1 .def_398)))
(let ((.def_341 (* (- 1.0) b.speed_y__AT2)))
(let ((.def_116 (* (- 1.0) g__AT0)))
(let ((.def_339 (* .def_116 b.delta__AT1)))
(let ((.def_342 (+ .def_339 .def_341)))
(let ((.def_343 (+ b.speed_y__AT1 .def_342)))
(let ((.def_344 (= .def_343 0.0 )))
(let ((.def_334 (* (- 1.0) b.x__AT2)))
(let ((.def_332 (* b.speed_x__AT1 b.delta__AT1)))
(let ((.def_335 (+ .def_332 .def_334)))
(let ((.def_336 (+ b.x__AT1 .def_335)))
(let ((.def_337 (= .def_336 0.0 )))
(let ((.def_285 (* b.delta__AT1 b.delta__AT1)))
(let ((.def_117 (* (/ 1 2) .def_116)))
(let ((.def_320 (* .def_117 .def_285)))
(let ((.def_322 (* (- 1.0) b.y__AT2)))
(let ((.def_325 (+ .def_322 .def_320)))
(let ((.def_298 (* b.speed_y__AT1 b.delta__AT1)))
(let ((.def_326 (+ .def_298 .def_325)))
(let ((.def_327 (+ b.y__AT1 .def_326)))
(let ((.def_328 (= .def_327 0.0 )))
(let ((.def_331 (and .def_328 .def_330)))
(let ((.def_338 (and .def_331 .def_337)))
(let ((.def_345 (and .def_338 .def_344)))
(let ((.def_346 (or .def_279 .def_345)))
(let ((.def_400 (and .def_346 .def_399)))
(let ((.def_405 (and .def_400 .def_404)))
(let ((.def_426 (and .def_405 .def_425)))
(let ((.def_435 (and .def_426 .def_434)))
(let ((.def_438 (and .def_435 .def_437)))
(let ((.def_441 (and .def_438 .def_440)))
(let ((.def_442 (and .def_264 .def_441)))
(let ((.def_459 (and .def_442 .def_458)))
(let ((.def_465 (and .def_459 .def_464)))
(let ((.def_316 (not .def_315)))
(let ((.def_288 (* 2.0 b.delta__AT1)))
(let ((.def_289 (* b.speed_y__AT1 .def_288)))
(let ((.def_286 (* g__AT0 .def_285)))
(let ((.def_287 (* (- 1.0) .def_286)))
(let ((.def_290 (+ .def_287 .def_289)))
(let ((.def_291 (* 2.0 b.y__AT1)))
(let ((.def_293 (+ .def_291 .def_290)))
(let ((.def_308 (<= .def_293 0.0 )))
(let ((.def_309 (not .def_308)))
(let ((.def_305 (* b.speed_y__AT1 b.speed_y__AT1)))
(let ((.def_304 (* g__AT0 .def_291)))
(let ((.def_306 (+ .def_304 .def_305)))
(let ((.def_307 (<= .def_306 0.0 )))
(let ((.def_310 (and .def_307 .def_309)))
(let ((.def_311 (and .def_278 .def_310)))
(let ((.def_299 (+ .def_291 .def_298)))
(let ((.def_300 (<= 0.0 .def_299)))
(let ((.def_301 (and .def_297 .def_300)))
(let ((.def_294 (<= 0.0 .def_293)))
(let ((.def_302 (and .def_294 .def_301)))
(let ((.def_269 (<= 0.0 b.y__AT1)))
(let ((.def_284 (and .def_269 .def_283)))
(let ((.def_295 (and .def_284 .def_294)))
(let ((.def_282 (not .def_281)))
(let ((.def_296 (or .def_282 .def_295)))
(let ((.def_303 (or .def_296 .def_302)))
(let ((.def_312 (or .def_303 .def_311)))
(let ((.def_313 (not .def_312)))
(let ((.def_317 (or .def_313 .def_316)))
(let ((.def_318 (or .def_279 .def_317)))
(let ((.def_32 (not b.counter.0__AT0)))
(let ((.def_30 (not b.counter.1__AT0)))
(let ((.def_33 (and .def_30 .def_32)))
(let ((.def_274 (or .def_33 b.counter.3__AT0)))
(let ((.def_38 (not b.counter.3__AT0)))
(let ((.def_35 (not b.counter.2__AT0)))
(let ((.def_36 (and .def_33 .def_35)))
(let ((.def_273 (or .def_36 .def_38)))
(let ((.def_275 (and .def_273 .def_274)))
(let ((.def_270 (and .def_67 .def_269)))
(let ((.def_267 (or .def_264 .def_266)))
(let ((.def_257 (or .def_158 .def_170)))
(let ((.def_261 (or b.counter.3__AT1 .def_257)))
(let ((.def_258 (or b.counter.2__AT1 .def_257)))
(let ((.def_256 (or .def_165 .def_170)))
(let ((.def_259 (and .def_256 .def_258)))
(let ((.def_260 (or .def_180 .def_259)))
(let ((.def_262 (and .def_260 .def_261)))
(let ((.def_268 (and .def_262 .def_267)))
(let ((.def_271 (and .def_268 .def_270)))
(let ((.def_76 (<= 0.0 b.delta__AT0)))
(let ((.def_51 (not b.EVENT.0__AT0)))
(let ((.def_49 (not b.EVENT.1__AT0)))
(let ((.def_73 (and .def_49 .def_51)))
(let ((.def_74 (not .def_73)))
(let ((.def_252 (or .def_74 .def_76)))
(let ((.def_253 (or b.EVENT.1__AT0 .def_252)))
(let ((.def_202 (= b.counter.0__AT0 b.counter.0__AT1)))
(let ((.def_200 (= b.counter.1__AT0 b.counter.1__AT1)))
(let ((.def_198 (= b.counter.2__AT0 b.counter.2__AT1)))
(let ((.def_197 (= b.counter.3__AT0 b.counter.3__AT1)))
(let ((.def_199 (and .def_197 .def_198)))
(let ((.def_201 (and .def_199 .def_200)))
(let ((.def_203 (and .def_201 .def_202)))
(let ((.def_249 (or .def_74 .def_203)))
(let ((.def_250 (or b.EVENT.1__AT0 .def_249)))
(let ((.def_209 (= b.x__AT1 b.x__AT0)))
(let ((.def_111 (= b.y__AT0 b.y__AT1)))
(let ((.def_243 (and .def_111 .def_209)))
(let ((.def_129 (= b.speed_x__AT0 b.speed_x__AT1)))
(let ((.def_244 (and .def_129 .def_243)))
(let ((.def_196 (= b.speed_y__AT0 b.speed_y__AT1)))
(let ((.def_245 (and .def_196 .def_244)))
(let ((.def_240 (= b.delta__AT0 0.0 )))
(let ((.def_241 (and .def_73 .def_240)))
(let ((.def_242 (not .def_241)))
(let ((.def_246 (or .def_242 .def_245)))
(let ((.def_247 (or b.EVENT.1__AT0 .def_246)))
(let ((.def_220 (= b.time__AT0 b.time__AT1)))
(let ((.def_232 (and .def_209 .def_220)))
(let ((.def_233 (and .def_111 .def_232)))
(let ((.def_234 (and .def_129 .def_233)))
(let ((.def_235 (and .def_196 .def_234)))
(let ((.def_236 (and .def_203 .def_235)))
(let ((.def_237 (or .def_49 .def_236)))
(let ((.def_223 (* (- 1.0) b.time__AT1)))
(let ((.def_226 (+ b.delta__AT0 .def_223)))
(let ((.def_227 (+ b.time__AT0 .def_226)))
(let ((.def_228 (= .def_227 0.0 )))
(let ((.def_229 (or .def_74 .def_228)))
(let ((.def_230 (or b.EVENT.1__AT0 .def_229)))
(let ((.def_221 (or .def_73 .def_220)))
(let ((.def_222 (or b.EVENT.1__AT0 .def_221)))
(let ((.def_231 (and .def_222 .def_230)))
(let ((.def_238 (and .def_231 .def_237)))
(let ((.def_216 (= .def_74 b.event_is_timed__AT1)))
(let ((.def_214 (= b.event_is_timed__AT0 .def_73)))
(let ((.def_217 (and .def_214 .def_216)))
(let ((.def_204 (and .def_196 .def_203)))
(let ((.def_149 (= b.y__AT0 0.0 )))
(let ((.def_78 (<= 0.0 b.speed_y__AT0)))
(let ((.def_93 (not .def_78)))
(let ((.def_150 (and .def_93 .def_149)))
(let ((.def_205 (or .def_150 .def_204)))
(let ((.def_171 (or b.counter.0__AT0 .def_170)))
(let ((.def_169 (or .def_32 b.counter.0__AT1)))
(let ((.def_172 (and .def_169 .def_171)))
(let ((.def_173 (and .def_158 .def_172)))
(let ((.def_174 (or b.counter.1__AT0 .def_173)))
(let ((.def_168 (or .def_30 b.counter.1__AT1)))
(let ((.def_175 (and .def_168 .def_174)))
(let ((.def_188 (and .def_165 .def_175)))
(let ((.def_189 (or b.counter.2__AT0 .def_188)))
(let ((.def_183 (and .def_32 .def_158)))
(let ((.def_184 (or b.counter.1__AT0 .def_183)))
(let ((.def_185 (and .def_168 .def_184)))
(let ((.def_186 (and b.counter.2__AT1 .def_185)))
(let ((.def_187 (or .def_35 .def_186)))
(let ((.def_190 (and .def_187 .def_189)))
(let ((.def_191 (and b.counter.3__AT1 .def_190)))
(let ((.def_192 (or b.counter.3__AT0 .def_191)))
(let ((.def_176 (and b.counter.2__AT1 .def_175)))
(let ((.def_177 (or b.counter.2__AT0 .def_176)))
(let ((.def_162 (or b.counter.1__AT0 b.counter.1__AT1)))
(let ((.def_160 (and .def_158 b.counter.0__AT1)))
(let ((.def_161 (or .def_30 .def_160)))
(let ((.def_163 (and .def_161 .def_162)))
(let ((.def_166 (and .def_163 .def_165)))
(let ((.def_167 (or .def_35 .def_166)))
(let ((.def_178 (and .def_167 .def_177)))
(let ((.def_181 (and .def_178 .def_180)))
(let ((.def_182 (or .def_38 .def_181)))
(let ((.def_193 (and .def_182 .def_192)))
(let ((.def_152 (* (- 1.0) b.speed_y__AT0)))
(let ((.def_155 (* .def_152 .def_154)))
(let ((.def_156 (= b.speed_y__AT1 .def_155)))
(let ((.def_194 (and .def_156 .def_193)))
(let ((.def_151 (not .def_150)))
(let ((.def_195 (or .def_151 .def_194)))
(let ((.def_206 (and .def_195 .def_205)))
(let ((.def_207 (and .def_111 .def_206)))
(let ((.def_208 (and .def_129 .def_207)))
(let ((.def_210 (and .def_208 .def_209)))
(let ((.def_211 (or .def_73 .def_210)))
(let ((.def_212 (or b.EVENT.1__AT0 .def_211)))
(let ((.def_141 (* b.delta__AT0 .def_116)))
(let ((.def_144 (+ .def_141 .def_143)))
(let ((.def_145 (+ b.speed_y__AT0 .def_144)))
(let ((.def_146 (= .def_145 0.0 )))
(let ((.def_133 (* (- 1.0) b.x__AT1)))
(let ((.def_137 (+ .def_133 b.x__AT0)))
(let ((.def_131 (* b.delta__AT0 b.speed_x__AT0)))
(let ((.def_138 (+ .def_131 .def_137)))
(let ((.def_139 (= .def_138 0.0 )))
(let ((.def_80 (* b.delta__AT0 b.delta__AT0)))
(let ((.def_118 (* .def_80 .def_117)))
(let ((.def_120 (* (- 1.0) b.y__AT1)))
(let ((.def_123 (+ .def_120 .def_118)))
(let ((.def_94 (* b.speed_y__AT0 b.delta__AT0)))
(let ((.def_124 (+ .def_94 .def_123)))
(let ((.def_125 (+ b.y__AT0 .def_124)))
(let ((.def_126 (= .def_125 0.0 )))
(let ((.def_130 (and .def_126 .def_129)))
(let ((.def_140 (and .def_130 .def_139)))
(let ((.def_147 (and .def_140 .def_146)))
(let ((.def_148 (or .def_74 .def_147)))
(let ((.def_213 (and .def_148 .def_212)))
(let ((.def_218 (and .def_213 .def_217)))
(let ((.def_239 (and .def_218 .def_238)))
(let ((.def_248 (and .def_239 .def_247)))
(let ((.def_251 (and .def_248 .def_250)))
(let ((.def_254 (and .def_251 .def_253)))
(let ((.def_255 (and .def_49 .def_254)))
(let ((.def_272 (and .def_255 .def_271)))
(let ((.def_276 (and .def_272 .def_275)))
(let ((.def_112 (not .def_111)))
(let ((.def_84 (* 2.0 b.delta__AT0)))
(let ((.def_85 (* b.speed_y__AT0 .def_84)))
(let ((.def_81 (* g__AT0 .def_80)))
(let ((.def_83 (* (- 1.0) .def_81)))
(let ((.def_86 (+ .def_83 .def_85)))
(let ((.def_87 (* 2.0 b.y__AT0)))
(let ((.def_89 (+ .def_87 .def_86)))
(let ((.def_104 (<= .def_89 0.0 )))
(let ((.def_105 (not .def_104)))
(let ((.def_101 (* b.speed_y__AT0 b.speed_y__AT0)))
(let ((.def_100 (* g__AT0 .def_87)))
(let ((.def_102 (+ .def_100 .def_101)))
(let ((.def_103 (<= .def_102 0.0 )))
(let ((.def_106 (and .def_103 .def_105)))
(let ((.def_107 (and .def_73 .def_106)))
(let ((.def_95 (+ .def_87 .def_94)))
(let ((.def_96 (<= 0.0 .def_95)))
(let ((.def_97 (and .def_93 .def_96)))
(let ((.def_90 (<= 0.0 .def_89)))
(let ((.def_98 (and .def_90 .def_97)))
(let ((.def_68 (<= 0.0 b.y__AT0)))
(let ((.def_79 (and .def_68 .def_78)))
(let ((.def_91 (and .def_79 .def_90)))
(let ((.def_77 (not .def_76)))
(let ((.def_92 (or .def_77 .def_91)))
(let ((.def_99 (or .def_92 .def_98)))
(let ((.def_108 (or .def_99 .def_107)))
(let ((.def_109 (not .def_108)))
(let ((.def_113 (or .def_109 .def_112)))
(let ((.def_114 (or .def_74 .def_113)))
(let ((.def_69 (and .def_67 .def_68)))
(let ((.def_52 (or .def_49 .def_51)))
(let ((.def_42 (or .def_30 .def_32)))
(let ((.def_46 (or b.counter.3__AT0 .def_42)))
(let ((.def_43 (or b.counter.2__AT0 .def_42)))
(let ((.def_41 (or .def_32 .def_35)))
(let ((.def_44 (and .def_41 .def_43)))
(let ((.def_45 (or .def_38 .def_44)))
(let ((.def_47 (and .def_45 .def_46)))
(let ((.def_53 (and .def_47 .def_52)))
(let ((.def_70 (and .def_53 .def_69)))
(let ((.def_39 (and .def_36 .def_38)))
(let ((.def_27 (= b.speed_y__AT0 0.0 )))
(let ((.def_24 (= b.y__AT0 10.0 )))
(let ((.def_19 (= b.time__AT0 0.0 )))
(let ((.def_21 (and .def_19 b.event_is_timed__AT0)))
(let ((.def_25 (and .def_21 .def_24)))
(let ((.def_28 (and .def_25 .def_27)))
(let ((.def_40 (and .def_28 .def_39)))
(let ((.def_71 (and .def_40 .def_70)))
(let ((.def_7 (and .def_4 .def_6)))
(let ((.def_14 (or .def_7 b.counter.3__AT2)))
(let ((.def_10 (and .def_7 .def_9)))
(let ((.def_13 (or .def_10 .def_12)))
(let ((.def_15 (and .def_13 .def_14)))
(let ((.def_16 (not .def_15)))
(let ((.def_72 (and .def_16 .def_71)))
(let ((.def_115 (and .def_72 .def_114)))
(let ((.def_277 (and .def_115 .def_276)))
(let ((.def_319 (and .def_277 .def_318)))
(let ((.def_466 (and .def_319 .def_465)))
(let ((.def_508 (and .def_466 .def_507)))
.def_508))))))))))))))))))))))))))))))))))))))))))))))))))))))))))))))))))))))))))))))))))))))))))))))))))))))))))))))))))))))))))))))))))))))))))))))))))))))))))))))))))))))))))))))))))))))))))))))))))))))))))))))))))))))))))))))))))))))))))))))))))))))))))))))))))))))))))))))))))))))))))))))))))))))))))))))))))))))))))))))))))))))))))))))))))))))))))))))))))))))))))))))))))))))))))))))))))))))))))))))))))))))))))))))))))))))))))))))))))))))))))
(check-sat)
(exit)
